COMMENT: Tour length 84921.6
DIMENSION: 194
TOUR_SECTION
1
128
125
31
96
2
21
131
174
153
102
186
164
139
6
151
59
86
118
70
77
19
51
81
74
69
53
117
100
24
104
97
133
116
5
63
12
172
147
113
110
192
44
187
149
106
60
80
109
47
38
26
87
50
178
122
168
130
76
85
94
91
84
92
180
89
18
7
93
45
83
58
49
11
141
173
123
177
158
17
23
34
157
124
73
105
90
171
28
40
36
185
175
191
129
43
150
154
152
99
138
132
140
88
68
62
71
146
108
165
159
67
41
166
176
170
57
155
79
111
121
27
8
115
190
37
33
4
135
16
39
20
98
82
15
35
126
194
64
156
163
3
134
112
183
30
188
14
75
148
162
65
55
101
119
95
56
42
32
144
169
189
107
127
184
9
10
120
22
52
136
25
78
72
193
103
13
145
161
182
143
179
142
61
160
29
48
181
54
137
114
167
66
46
